<number of tasks>
50

<cycle time>
1000

<order strength>
0.202


<task times>
1 101
2 118
3 76
4 193
5 243
6 250
7 243
8 24
9 279
10 78
11 128
12 288
13 79
14 109
15 124
16 130
17 73
18 164
19 24
20 158
21 152
22 348
23 88
24 136
25 149
26 93
27 262
28 76
29 108
30 71
31 117
32 69
33 169
34 62
35 147
36 193
37 73
38 174
39 130
40 87
41 192
42 123
43 67
44 77
45 189
46 250
47 208
48 213
49 140
50 155

<precedence relations>
2,33
3,12
3,40
6,11
6,13
7,9
7,10
9,18
10,16
10,17
11,14
12,34
13,15
14,19
14,20
15,23
16,22
17,50
18,21
19,24
22,26
22,28
22,30
23,25
23,27
23,29
23,31
23,32
23,34
23,35
26,33
28,34
28,35
29,36
30,32
30,36
30,44
31,37
33,44
34,38
36,39
36,41
36,42
37,40
37,43
38,47
41,45
41,48
42,49
42,50
43,46

<end>
